regression_itp/log-2023-02-20-10-22-36/itp_bug.smt2.out
unsat
((not (<= 0 (* -1 |state_type::state.v!0|))))
